GLPSOL--GLPK LP/MIP Solver 5.0
Parameter(s) specified in the command line:
 --lp ../modeles/5_124.lp --log 5_124.log
Reading problem data from '../modeles/5_124.lp'...
641 rows, 1250 columns, 4355 non-zeros
620 integer variables, all of which are binary
1902 lines were read
GLPK Integer Optimizer 5.0
641 rows, 1250 columns, 4355 non-zeros
620 integer variables, all of which are binary
Preprocessing...
610 constraint coefficient(s) were reduced
641 rows, 1245 columns, 4350 non-zeros
620 integer variables, all of which are binary
Scaling...
 A: min|aij| =  1.041e-03  max|aij| =  4.000e+00  ratio =  3.844e+03
GM: min|aij| =  1.270e-01  max|aij| =  7.874e+00  ratio =  6.200e+01
EQ: min|aij| =  1.613e-02  max|aij| =  1.000e+00  ratio =  6.200e+01
2N: min|aij| =  1.562e-02  max|aij| =  1.740e+00  ratio =  1.114e+02
Constructing initial basis...
Size of triangular part is 641
Solving LP relaxation...
GLPK Simplex Optimizer 5.0
641 rows, 1245 columns, 4350 non-zeros
      0: obj =   1.000000000e+01 inf =   2.450e+01 (11)
     84: obj =   2.638292334e-01 inf =   0.000e+00 (0)
*   275: obj =  -2.235364397e+00 inf =   9.812e-15 (0)
OPTIMAL LP SOLUTION FOUND
Integer optimization begins...
Long-step dual simplex will be used
+   275: mip =     not found yet >=              -inf        (1; 0)
+   345: >>>>>  -2.235364397e+00 >=  -2.235364397e+00 < 0.1% (69; 0)
+   345: mip =  -2.235364397e+00 >=     tree is empty   0.0% (0; 137)
INTEGER OPTIMAL SOLUTION FOUND
Time used:   0.1 secs
Memory used: 1.8 Mb (1922071 bytes)
